data/solutions/recovery/degenerate/intermediate/flexible/degenerate_intermediate_instance23/9.sol
Elapsed time: 100.09
Upper bound: 227908909.0
Planning weighted value: 9.26536852909e+11
C[0]=227908909.0
C[1]=227719077.0
C[2]=227652255.0
C[3]=227621935.0
C[4]=226740000.0
C[5]=225908338.0
C[6]=224712277.0
C[7]=224260971.0
C[8]=223847260.0
C[9]=223327358.0
C[10]=222707520.0
C[11]=0.0
y[0]=7
y[1]=7
y[2]=1
y[3]=8
y[4]=5
y[5]=0
y[6]=4
y[7]=5
y[8]=9
y[9]=2
y[10]=2
y[11]=9
y[12]=1
y[13]=6
y[14]=10
y[15]=4
y[16]=2
y[17]=8
y[18]=6
y[19]=6
y[20]=10
y[21]=8
y[22]=7
y[23]=10
y[24]=2
y[25]=2
y[26]=2
y[27]=9
y[28]=8
y[29]=9
y[30]=3
y[31]=5
y[32]=8
y[33]=6
y[34]=10
y[35]=3
y[36]=0
y[37]=6
y[38]=5
y[39]=1
y[40]=1
y[41]=10
y[42]=8
y[43]=2
y[44]=1
y[45]=4
y[46]=2
y[47]=0
y[48]=1
y[49]=8
y[50]=0
y[51]=6
y[52]=3
y[53]=4
y[54]=4
y[55]=1
y[56]=3
y[57]=4
y[58]=5
y[59]=0
y[60]=3
y[61]=10
y[62]=7
y[63]=9
y[64]=0
y[65]=5
y[66]=9
y[67]=7
y[68]=7
y[69]=5
y[70]=0
y[71]=3
y[72]=7
y[73]=10
y[74]=9
y[75]=0
y[76]=2
y[77]=1
