data/solutions/recovery/degenerate/intermediate/flexible/degenerate_intermediate_instance23/9.log

Log started (V12.6.3.0) Sat Apr 21 14:43:37 2018

New value for default parallel thread count: 1

Problem '/tmp/tmp2LwS2f.pyomo.lp' read.
Read time = 0.01 sec. (0.84 ticks)

Problem name         : /tmp/tmp2LwS2f.pyomo.lp
Objective sense      : Minimize
Variables            :     950  [Nneg: 1,  Binary: 936,  General Integer: 13]
Objective nonzeros   :       1
Linear constraints   :     182  [Less: 90,  Equal: 92]
  Nonzeros           :   60259
  RHS nonzeros       :     157

Variables            : Min LB: 0.000000         Max UB: 1.000000       
Objective nonzeros   : Min   : 1.000000         Max   : 1.000000       
Linear constraints   :
  Nonzeros           : Min   : 1.000000         Max   : 6.145599e+07   
  RHS nonzeros       : Min   : 1.000000         Max   : 8.000000       
Tried aggregator 2 times.
MIP Presolve eliminated 81 rows and 140 columns.
Aggregator did 6 substitutions.
Reduced MIP has 95 rows, 804 columns, and 2237 nonzeros.
Reduced MIP has 792 binaries, 12 generals, 0 SOSs, and 0 indicators.
Presolve time = 0.01 sec. (10.91 ticks)
Found incumbent of value 8.2766505e+08 after 0.01 sec. (12.44 ticks)
Probing time = 0.00 sec. (1.59 ticks)
Tried aggregator 1 time.
Reduced MIP has 95 rows, 804 columns, and 2237 nonzeros.
Reduced MIP has 792 binaries, 12 generals, 0 SOSs, and 0 indicators.
Presolve time = 0.00 sec. (1.14 ticks)
Probing time = 0.00 sec. (1.59 ticks)
Clique table members: 72.
MIP emphasis: balance optimality and feasibility.
MIP search method: dynamic search.
Parallel mode: none, using 1 thread.
Root relaxation solution time = 0.00 sec. (1.28 ticks)

        Nodes                                         Cuts/
   Node  Left     Objective  IInf  Best Integer    Best Bound    ItCnt     Gap

*     0+    0                       8.27665e+08        0.0000           100.00%
      0     0   2.25673e+08    29   8.27665e+08   2.25673e+08      121   72.73%
      0     0   2.25673e+08    23   8.27665e+08      Fract: 4      145   72.73%
      0     0   2.25673e+08    25   8.27665e+08      Fract: 6      169   72.73%
*     0+    0                       2.53272e+08   2.25673e+08            10.90%
*     0+    0                       2.51091e+08   2.25673e+08            10.12%
*     0+    0                       2.47455e+08   2.25673e+08             8.80%
*     0+    0                       2.45460e+08   2.25673e+08             8.06%
      0     2   2.25673e+08    16   2.45460e+08   2.25673e+08      169    8.06%
Elapsed time = 0.05 sec. (55.09 ticks, tree = 0.01 MB, solutions = 5)
*    20+   20                       2.41778e+08   2.25673e+08             6.66%
*   120+   96                       2.39147e+08   2.25673e+08             5.63%
*   140+  115                       2.38823e+08   2.25673e+08             5.51%
*   240+  174                       2.35634e+08   2.25673e+08             4.23%
*   498+  330                       2.35030e+08   2.25673e+08             3.98%
*   499+  328                       2.33661e+08   2.25673e+08             3.42%
*   499+  320                       2.31640e+08   2.25673e+08             2.58%
*   499+  319                       2.29960e+08   2.25673e+08             1.86%
    926   559   2.26955e+08    13   2.29960e+08   2.25673e+08     3715    1.86%
    927   560   2.26955e+08    14   2.29960e+08   2.25673e+08     3717    1.86%
    928   561   2.26955e+08    14   2.29960e+08   2.25673e+08     3718    1.86%
    929   562   2.26955e+08    14   2.29960e+08   2.25673e+08     3720    1.86%
    930   561        cutoff         2.29960e+08   2.25673e+08     3727    1.86%
    931   560    infeasible         2.29960e+08   2.25673e+08     3727    1.86%
    932   559        cutoff         2.29960e+08   2.25673e+08     3733    1.86%
    933   559   2.29366e+08    28   2.29960e+08   2.25673e+08     3760    1.86%
    934   558   2.29366e+08    27   2.29960e+08   2.25673e+08     3766    1.86%
*  1299+  469                       2.29613e+08   2.25673e+08             1.72%
   1399   474   2.29330e+08    17   2.29613e+08   2.25673e+08     6350    1.72%
Elapsed time = 0.88 sec. (1079.37 ticks, tree = 0.27 MB, solutions = 14)
   3820  2020   2.26218e+08    29   2.29613e+08   2.25673e+08    13013    1.72%
   3821  2021   2.26218e+08    28   2.29613e+08   2.25673e+08    13015    1.72%
   3822  2022   2.26218e+08    29   2.29613e+08   2.25673e+08    13017    1.72%
   3823  2023   2.26218e+08    30   2.29613e+08   2.25673e+08    13018    1.72%
   3824  2024   2.26256e+08    30   2.29613e+08   2.25673e+08    13020    1.72%
   3825  2025   2.26256e+08    31   2.29613e+08   2.25673e+08    13025    1.72%
   3826  2026   2.26256e+08    31   2.29613e+08   2.25673e+08    13026    1.72%
   3827  2026   2.26476e+08    31   2.29613e+08   2.25673e+08    13031    1.72%
   3828  2026   2.26556e+08    30   2.29613e+08   2.25673e+08    13033    1.72%
   3829  2025        cutoff         2.29613e+08   2.25673e+08    13037    1.72%
Elapsed time = 1.63 sec. (2036.28 ticks, tree = 1.21 MB, solutions = 14)
   7043  4588   2.25673e+08    26   2.29613e+08   2.25673e+08    33980    1.72%
   7044  4589   2.25673e+08    26   2.29613e+08   2.25673e+08    33981    1.72%
   7045  4590   2.25673e+08    25   2.29613e+08   2.25673e+08    33983    1.72%
   7046  4591   2.25673e+08    26   2.29613e+08   2.25673e+08    33984    1.72%
   7047  4592   2.25673e+08    26   2.29613e+08   2.25673e+08    33988    1.72%
   7048  4593   2.25673e+08    26   2.29613e+08   2.25673e+08    33993    1.72%
   7049  4594   2.25673e+08    27   2.29613e+08   2.25673e+08    33995    1.72%
   7050  4595   2.25673e+08    27   2.29613e+08   2.25673e+08    33996    1.72%
   7051  4596   2.25673e+08    25   2.29613e+08   2.25673e+08    33998    1.72%
   7052  4597   2.25673e+08    27   2.29613e+08   2.25673e+08    34001    1.72%
Elapsed time = 2.36 sec. (2991.60 ticks, tree = 2.85 MB, solutions = 14)
   9454  6597   2.25673e+08    27   2.29613e+08   2.25673e+08    59900    1.72%
   9455  6598   2.25673e+08    26   2.29613e+08   2.25673e+08    59906    1.72%
   9456  6599   2.25673e+08    29   2.29613e+08   2.25673e+08    59920    1.72%
   9457  6600   2.25673e+08    31   2.29613e+08   2.25673e+08    59934    1.72%
   9458  6601   2.25673e+08    31   2.29613e+08   2.25673e+08    59935    1.72%
   9459  6602   2.25673e+08    30   2.29613e+08   2.25673e+08    59950    1.72%
   9460  6603   2.25673e+08    36   2.29613e+08   2.25673e+08    59973    1.72%
   9461  6604   2.25673e+08    40   2.29613e+08   2.25673e+08    59982    1.72%
   9462  6605   2.25673e+08    35   2.29613e+08   2.25673e+08    59992    1.72%
   9463  6606   2.25673e+08    30   2.29613e+08   2.25673e+08    59995    1.72%
Elapsed time = 3.08 sec. (3948.58 ticks, tree = 4.04 MB, solutions = 14)
  11100  8030   2.27985e+08    19   2.29613e+08   2.25673e+08    76588    1.72%
  11101  8031   2.27985e+08    18   2.29613e+08   2.25673e+08    76591    1.72%
  11102  8032   2.27985e+08    19   2.29613e+08   2.25673e+08    76592    1.72%
  11103  8033   2.27985e+08    19   2.29613e+08   2.25673e+08    76593    1.72%
  11104  8034   2.27985e+08    19   2.29613e+08   2.25673e+08    76594    1.72%
  11105  8035   2.27985e+08    19   2.29613e+08   2.25673e+08    76595    1.72%
  11106  8036   2.27985e+08    18   2.29613e+08   2.25673e+08    76597    1.72%
  11107  8037   2.27985e+08    18   2.29613e+08   2.25673e+08    76601    1.72%
  11108  8038   2.27985e+08    21   2.29613e+08   2.25673e+08    76609    1.72%
  11109  8039   2.27985e+08    19   2.29613e+08   2.25673e+08    76610    1.72%
Elapsed time = 3.85 sec. (4903.99 ticks, tree = 4.89 MB, solutions = 14)
* 13018  9666      integral     0   2.29488e+08   2.25673e+08    90055    1.66%
* 14145 10300      integral     0   2.29024e+08   2.25673e+08    96542    1.46%
  14353 10485   2.25845e+08    43   2.29024e+08   2.25673e+08    98262    1.46%
  14354 10486   2.25845e+08    34   2.29024e+08   2.25673e+08    98271    1.46%
  14355 10487   2.25845e+08    34   2.29024e+08   2.25673e+08    98278    1.46%
  14356 10487   2.26137e+08    33   2.29024e+08   2.25673e+08    98290    1.46%
  14357 10486   2.27590e+08    15   2.29024e+08   2.25673e+08    98294    1.46%
  14358 10485        cutoff         2.29024e+08   2.25673e+08    98362    1.46%
  14359 10484        cutoff         2.29024e+08   2.25673e+08    98372    1.46%
  14360 10485   2.25845e+08    34   2.29024e+08   2.25673e+08    98567    1.46%
  14361 10486   2.27393e+08    24   2.29024e+08   2.25673e+08    98652    1.46%
  14362 10485        cutoff         2.29024e+08   2.25673e+08    98655    1.46%
Elapsed time = 4.58 sec. (5872.12 ticks, tree = 6.63 MB, solutions = 16)
  16515 12169   2.25693e+08    33   2.29024e+08   2.25673e+08   123451    1.46%
  16516 12170   2.25693e+08    33   2.29024e+08   2.25673e+08   123453    1.46%
  16517 12171   2.25698e+08    32   2.29024e+08   2.25673e+08   123455    1.46%
  16518 12172   2.25698e+08    32   2.29024e+08   2.25673e+08   123457    1.46%
  16519 12173   2.25698e+08    33   2.29024e+08   2.25673e+08   123461    1.46%
  16520 12174   2.25699e+08    33   2.29024e+08   2.25673e+08   123465    1.46%
  16521 12175   2.25704e+08    33   2.29024e+08   2.25673e+08   123467    1.46%
  16522 12176   2.25708e+08    33   2.29024e+08   2.25673e+08   123469    1.46%
  16523 12177   2.25709e+08    32   2.29024e+08   2.25673e+08   123472    1.46%
  16524 12178   2.25711e+08    32   2.29024e+08   2.25673e+08   123473    1.46%
Elapsed time = 5.29 sec. (6827.07 ticks, tree = 7.72 MB, solutions = 16)
  18206 13561   2.25673e+08    20   2.29024e+08   2.25673e+08   149601    1.46%
  18207 13562   2.25673e+08    26   2.29024e+08   2.25673e+08   149606    1.46%
  18208 13563   2.25673e+08    24   2.29024e+08   2.25673e+08   149607    1.46%
  18209 13564   2.25673e+08    22   2.29024e+08   2.25673e+08   149608    1.46%
  18210 13565   2.25673e+08    21   2.29024e+08   2.25673e+08   149610    1.46%
  18211 13566   2.25673e+08    19   2.29024e+08   2.25673e+08   149615    1.46%
  18212 13567   2.25673e+08    19   2.29024e+08   2.25673e+08   149616    1.46%
  18213 13568   2.25673e+08    17   2.29024e+08   2.25673e+08   149618    1.46%
  18214 13569   2.25673e+08    17   2.29024e+08   2.25673e+08   149621    1.46%
  18215 13570   2.25673e+08    20   2.29024e+08   2.25673e+08   149625    1.46%
Elapsed time = 5.99 sec. (7784.98 ticks, tree = 8.56 MB, solutions = 16)
  20138 15177   2.25675e+08    28   2.29024e+08   2.25673e+08   177167    1.46%
  20139 15178   2.25673e+08    38   2.29024e+08   2.25673e+08   177205    1.46%
  20140 15179   2.25673e+08    36   2.29024e+08   2.25673e+08   177210    1.46%
  20141 15180   2.25707e+08    32   2.29024e+08   2.25673e+08   177470    1.46%
  20142 15181   2.28571e+08    32   2.29024e+08   2.25673e+08   177579    1.46%
  20143 15182   2.28657e+08    30   2.29024e+08   2.25673e+08   177886    1.46%
  20144 15181        cutoff         2.29024e+08   2.25673e+08   177989    1.46%
  20145 15180        cutoff         2.29024e+08   2.25673e+08   177994    1.46%
  20146 15181   2.25673e+08    29   2.29024e+08   2.25673e+08   178014    1.46%
  20147 15182   2.25673e+08    26   2.29024e+08   2.25673e+08   178015    1.46%
Elapsed time = 6.71 sec. (8768.09 ticks, tree = 9.57 MB, solutions = 16)
* 21535 16329      integral     0   2.29012e+08   2.25673e+08   190903    1.46%
* 22403 16665      integral     0   2.28588e+08   2.25673e+08   197642    1.28%
  22775 16978   2.25673e+08    20   2.28588e+08   2.25673e+08   200539    1.28%
  22776 16979   2.25673e+08    21   2.28588e+08   2.25673e+08   200543    1.28%
  22777 16980   2.25673e+08    21   2.28588e+08   2.25673e+08   200550    1.28%
  22778 16981   2.25673e+08    21   2.28588e+08   2.25673e+08   200565    1.28%
  22779 16982   2.25673e+08    22   2.28588e+08   2.25673e+08   200570    1.28%
  22780 16983   2.25673e+08    20   2.28588e+08   2.25673e+08   200580    1.28%
  22781 16984   2.25673e+08    18   2.28588e+08   2.25673e+08   200581    1.28%
  22782 16985   2.25673e+08    20   2.28588e+08   2.25673e+08   200584    1.28%
  22783 16986   2.25673e+08    20   2.28588e+08   2.25673e+08   200585    1.28%
  30868 23917   2.25673e+08    20   2.28588e+08   2.25673e+08   269809    1.28%
Elapsed time = 9.49 sec. (12582.84 ticks, tree = 15.46 MB, solutions = 18)
  36628 28693    infeasible         2.28588e+08   2.25673e+08   357904    1.28%
  36629 28692        cutoff         2.28588e+08   2.25673e+08   358128    1.28%
  36630 28693   2.27100e+08    35   2.28588e+08   2.25673e+08   358363    1.28%
  36631 28694   2.28219e+08    18   2.28588e+08   2.25673e+08   358378    1.28%
  36632 28693        cutoff         2.28588e+08   2.25673e+08   358397    1.28%
  36633 28692        cutoff         2.28588e+08   2.25673e+08   358448    1.28%
  36634 28691        cutoff         2.28588e+08   2.25673e+08   358541    1.28%
  36635 28690        cutoff         2.28588e+08   2.25673e+08   358610    1.28%
  36636 28689    infeasible         2.28588e+08   2.25673e+08   358715    1.28%
  36637 28690   2.25673e+08    30   2.28588e+08   2.25673e+08   358825    1.28%
Elapsed time = 12.26 sec. (16437.27 ticks, tree = 18.43 MB, solutions = 18)
  41169 32544   2.25673e+08    32   2.28588e+08   2.25673e+08   452942    1.28%
  41170 32545   2.25673e+08    30   2.28588e+08   2.25673e+08   452946    1.28%
  41171 32546   2.25673e+08    31   2.28588e+08   2.25673e+08   452947    1.28%
  41172 32547   2.25673e+08    31   2.28588e+08   2.25673e+08   452948    1.28%
  41173 32548   2.25673e+08    27   2.28588e+08   2.25673e+08   452954    1.28%
  41174 32549   2.25673e+08    28   2.28588e+08   2.25673e+08   452959    1.28%
  41175 32550   2.25673e+08    27   2.28588e+08   2.25673e+08   452974    1.28%
  41176 32551   2.25673e+08    28   2.28588e+08   2.25673e+08   452984    1.28%
  41177 32552   2.25673e+08    26   2.28588e+08   2.25673e+08   452987    1.28%
  41178 32553   2.25673e+08    28   2.28588e+08   2.25673e+08   452998    1.28%
Elapsed time = 14.98 sec. (20254.79 ticks, tree = 20.92 MB, solutions = 18)
  46807 37389   2.25673e+08    34   2.28588e+08   2.25673e+08   540047    1.28%
  46808 37390   2.25673e+08    36   2.28588e+08   2.25673e+08   540055    1.28%
  46809 37391   2.25673e+08    32   2.28588e+08   2.25673e+08   540060    1.28%
  46810 37392   2.25673e+08    31   2.28588e+08   2.25673e+08   540073    1.28%
  46811 37393   2.25673e+08    33   2.28588e+08   2.25673e+08   540078    1.28%
  46812 37394   2.25673e+08    33   2.28588e+08   2.25673e+08   540079    1.28%
  46813 37395   2.25673e+08    33   2.28588e+08   2.25673e+08   540080    1.28%
  46814 37396   2.25673e+08    33   2.28588e+08   2.25673e+08   540081    1.28%
  46815 37397   2.25673e+08    33   2.28588e+08   2.25673e+08   540086    1.28%
  46816 37398   2.25673e+08    35   2.28588e+08   2.25673e+08   540102    1.28%
Elapsed time = 17.71 sec. (24072.42 ticks, tree = 25.00 MB, solutions = 18)
  51748 41484   2.25673e+08    33   2.28588e+08   2.25673e+08   623372    1.28%
  51749 41485   2.25673e+08    34   2.28588e+08   2.25673e+08   623376    1.28%
  51750 41486   2.25673e+08    33   2.28588e+08   2.25673e+08   623378    1.28%
  51751 41487   2.25673e+08    30   2.28588e+08   2.25673e+08   623397    1.28%
  51752 41488   2.25673e+08    28   2.28588e+08   2.25673e+08   623411    1.28%
  51753 41489   2.25673e+08    27   2.28588e+08   2.25673e+08   623512    1.28%
  51754 41490   2.25673e+08    34   2.28588e+08   2.25673e+08   623588    1.28%
  51755 41491   2.25673e+08    29   2.28588e+08   2.25673e+08   623611    1.28%
  51756 41492   2.25673e+08    28   2.28588e+08   2.25673e+08   623646    1.28%
  51757 41493   2.25673e+08    30   2.28588e+08   2.25673e+08   623664    1.28%
Elapsed time = 20.61 sec. (27900.67 ticks, tree = 27.63 MB, solutions = 18)
  55753 44742        cutoff         2.28588e+08   2.25673e+08   707434    1.28%
  55754 44741        cutoff         2.28588e+08   2.25673e+08   707622    1.28%
  55755 44740        cutoff         2.28588e+08   2.25673e+08   707680    1.28%
  55756 44741   2.25673e+08    52   2.28588e+08   2.25673e+08   707785    1.28%
  55757 44742   2.25673e+08    39   2.28588e+08   2.25673e+08   707795    1.28%
  55758 44743   2.25673e+08    36   2.28588e+08   2.25673e+08   707797    1.28%
  55759 44744   2.25673e+08    35   2.28588e+08   2.25673e+08   707808    1.28%
  55760 44745   2.25880e+08    39   2.28588e+08   2.25673e+08   707894    1.28%
  55761 44745   2.26175e+08    41   2.28588e+08   2.25673e+08   707924    1.28%
  55762 44746   2.26332e+08    42   2.28588e+08   2.25673e+08   707940    1.28%
Elapsed time = 24.21 sec. (31743.52 ticks, tree = 29.69 MB, solutions = 18)
* 58699+44864                       2.28152e+08   2.25673e+08             1.09%
  59831 45668   2.25673e+08    27   2.28152e+08   2.25673e+08   790706    1.09%
  59832 45669   2.25673e+08    27   2.28152e+08   2.25673e+08   790737    1.09%
  59833 45668        cutoff         2.28152e+08   2.25673e+08   790898    1.09%
  59834 45669   2.25673e+08    26   2.28152e+08   2.25673e+08   790914    1.09%
  59835 45670   2.25673e+08    26   2.28152e+08   2.25673e+08   790917    1.09%
  59836 45671   2.25673e+08    26   2.28152e+08   2.25673e+08   790923    1.09%
  59837 45672   2.25673e+08    25   2.28152e+08   2.25673e+08   790952    1.09%
  59838 45673   2.25673e+08    29   2.28152e+08   2.25673e+08   790960    1.09%
  59839 45674   2.25673e+08    22   2.28152e+08   2.25673e+08   790975    1.09%
  59840 45675   2.25673e+08    26   2.28152e+08   2.25673e+08   790976    1.09%
Elapsed time = 27.75 sec. (35569.20 ticks, tree = 30.20 MB, solutions = 19)
  65129 50300   2.25673e+08    31   2.28152e+08   2.25673e+08   872892    1.09%
  65130 50301   2.25673e+08    31   2.28152e+08   2.25673e+08   872904    1.09%
  65131 50302   2.25673e+08    35   2.28152e+08   2.25673e+08   872921    1.09%
  65132 50303   2.25673e+08    34   2.28152e+08   2.25673e+08   872923    1.09%
  65133 50304   2.25673e+08    35   2.28152e+08   2.25673e+08   872931    1.09%
  65134 50305   2.25951e+08    33   2.28152e+08   2.25673e+08   873058    1.09%
  65135 50306   2.25983e+08    32   2.28152e+08   2.25673e+08   873083    1.09%
  65136 50307   2.25994e+08    30   2.28152e+08   2.25673e+08   873088    1.09%
  65137 50308   2.26078e+08    33   2.28152e+08   2.25673e+08   873115    1.09%
  65138 50309   2.26078e+08    32   2.28152e+08   2.25673e+08   873118    1.09%
Elapsed time = 31.17 sec. (39393.24 ticks, tree = 33.01 MB, solutions = 19)
  70575 55151   2.26713e+08    37   2.28152e+08   2.25673e+08   958501    1.09%
  70576 55152   2.26727e+08    36   2.28152e+08   2.25673e+08   958503    1.09%
  70577 55153   2.26731e+08    46   2.28152e+08   2.25673e+08   958511    1.09%
  70578 55154   2.26734e+08    44   2.28152e+08   2.25673e+08   958515    1.09%
  70579 55155   2.26744e+08    43   2.28152e+08   2.25673e+08   958519    1.09%
  70580 55156   2.26778e+08    39   2.28152e+08   2.25673e+08   958529    1.09%
  70581 55157   2.26778e+08    39   2.28152e+08   2.25673e+08   958530    1.09%
  70582 55158   2.26778e+08    40   2.28152e+08   2.25673e+08   958531    1.09%
  70583 55159   2.26779e+08    40   2.28152e+08   2.25673e+08   958533    1.09%
  70584 55160   2.26779e+08    39   2.28152e+08   2.25673e+08   958537    1.09%
Elapsed time = 34.59 sec. (43210.79 ticks, tree = 35.99 MB, solutions = 19)
  74955 58758   2.25674e+08    49   2.28152e+08   2.25673e+08  1040087    1.09%
  74956 58759   2.25676e+08    44   2.28152e+08   2.25673e+08  1040090    1.09%
  74957 58760   2.25676e+08    44   2.28152e+08   2.25673e+08  1040095    1.09%
  74958 58761   2.25678e+08    39   2.28152e+08   2.25673e+08  1040101    1.09%
  74959 58762   2.25678e+08    38   2.28152e+08   2.25673e+08  1040102    1.09%
  74960 58763   2.25678e+08    38   2.28152e+08   2.25673e+08  1040105    1.09%
  74961 58764   2.25678e+08    43   2.28152e+08   2.25673e+08  1040107    1.09%
  74962 58765   2.25678e+08    44   2.28152e+08   2.25673e+08  1040109    1.09%
  74963 58766   2.25679e+08    44   2.28152e+08   2.25673e+08  1040110    1.09%
  74964 58767   2.25679e+08    41   2.28152e+08   2.25673e+08  1040112    1.09%
Elapsed time = 38.13 sec. (47032.22 ticks, tree = 38.30 MB, solutions = 19)
* 76499+59045                       2.27925e+08   2.25673e+08             0.99%
  79112 61220   2.26076e+08    38   2.27925e+08   2.25673e+08  1118743    0.99%
  79113 61221   2.26897e+08    35   2.27925e+08   2.25673e+08  1118796    0.99%
  79114 61220        cutoff         2.27925e+08   2.25673e+08  1118800    0.99%
  79115 61219        cutoff         2.27925e+08   2.25673e+08  1118806    0.99%
  79116 61220   2.25673e+08    27   2.27925e+08   2.25673e+08  1118861    0.99%
  79117 61221   2.25673e+08    27   2.27925e+08   2.25673e+08  1118866    0.99%
  79118 61222   2.25673e+08    28   2.27925e+08   2.25673e+08  1118870    0.99%
  79119 61223   2.25673e+08    29   2.27925e+08   2.25673e+08  1118879    0.99%
  79120 61224   2.25673e+08    27   2.27925e+08   2.25673e+08  1118880    0.99%
  79121 61225   2.25673e+08    24   2.27925e+08   2.25673e+08  1118891    0.99%
Elapsed time = 41.65 sec. (50854.78 ticks, tree = 39.84 MB, solutions = 20)
  84291 65370        cutoff         2.27925e+08   2.25673e+08  1203327    0.99%
  84292 65371   2.25673e+08    16   2.27925e+08   2.25673e+08  1203387    0.99%
  84293 65372   2.25673e+08    22   2.27925e+08   2.25673e+08  1203402    0.99%
  84294 65373   2.26143e+08    32   2.27925e+08   2.25673e+08  1203485    0.99%
  84295 65374   2.26143e+08    37   2.27925e+08   2.25673e+08  1203591    0.99%
  84296 65375   2.26143e+08    37   2.27925e+08   2.25673e+08  1203612    0.99%
  84297 65376   2.26143e+08    37   2.27925e+08   2.25673e+08  1203615    0.99%
  84298 65376   2.27589e+08    24   2.27925e+08   2.25673e+08  1203677    0.99%
  84299 65377   2.27589e+08    24   2.27925e+08   2.25673e+08  1203678    0.99%
  84300 65378   2.27589e+08    24   2.27925e+08   2.25673e+08  1203681    0.99%
Elapsed time = 45.14 sec. (54683.21 ticks, tree = 42.55 MB, solutions = 20)
  89024 69015        cutoff         2.27925e+08   2.25673e+08  1289827    0.99%
  89025 69014    infeasible         2.27925e+08   2.25673e+08  1289903    0.99%
  89026 69014   2.25845e+08    41   2.27925e+08   2.25673e+08  1290290    0.99%
  89027 69015   2.25845e+08    38   2.27925e+08   2.25673e+08  1290312    0.99%
  89028 69016   2.25845e+08    35   2.27925e+08   2.25673e+08  1290340    0.99%
  89029 69017   2.25845e+08    34   2.27925e+08   2.25673e+08  1290344    0.99%
  89030 69018   2.25845e+08    35   2.27925e+08   2.25673e+08  1290345    0.99%
  89031 69019   2.25877e+08    32   2.27925e+08   2.25673e+08  1290361    0.99%
  89032 69020   2.25881e+08    31   2.27925e+08   2.25673e+08  1290362    0.99%
  89033 69021   2.26333e+08    31   2.27925e+08   2.25673e+08  1290370    0.99%
Elapsed time = 48.72 sec. (58529.83 ticks, tree = 46.79 MB, solutions = 20)
  92071 70994    infeasible         2.27925e+08   2.25673e+08  1381071    0.99%
  92072 70995   2.25673e+08    36   2.27925e+08   2.25673e+08  1381218    0.99%
  92073 70996   2.25673e+08    36   2.27925e+08   2.25673e+08  1381219    0.99%
  92074 70997   2.25673e+08    34   2.27925e+08   2.25673e+08  1381220    0.99%
  92075 70998   2.25673e+08    27   2.27925e+08   2.25673e+08  1381231    0.99%
  92076 70999   2.25673e+08    26   2.27925e+08   2.25673e+08  1381232    0.99%
  92077 71000   2.25673e+08    26   2.27925e+08   2.25673e+08  1381233    0.99%
  92078 71001   2.25673e+08    28   2.27925e+08   2.25673e+08  1381238    0.99%
  92079 71002   2.25673e+08    28   2.27925e+08   2.25673e+08  1381239    0.99%
  92080 71003   2.25673e+08    28   2.27925e+08   2.25673e+08  1381240    0.99%
Elapsed time = 52.35 sec. (62356.04 ticks, tree = 48.06 MB, solutions = 20)
  97124 75052   2.26892e+08    45   2.27925e+08   2.25673e+08  1470495    0.99%
  97125 75053   2.26892e+08    44   2.27925e+08   2.25673e+08  1470502    0.99%
  97126 75054   2.26940e+08    43   2.27925e+08   2.25673e+08  1470505    0.99%
  97127 75053        cutoff         2.27925e+08   2.25673e+08  1470528    0.99%
  97128 75054   2.27097e+08    42   2.27925e+08   2.25673e+08  1470539    0.99%
  97129 75055   2.27120e+08    41   2.27925e+08   2.25673e+08  1470548    0.99%
  97130 75056   2.27159e+08    43   2.27925e+08   2.25673e+08  1470555    0.99%
  97131 75057   2.27388e+08    39   2.27925e+08   2.25673e+08  1470571    0.99%
  97132 75058   2.27388e+08    44   2.27925e+08   2.25673e+08  1470572    0.99%
  97133 75057        cutoff         2.27925e+08   2.25673e+08  1470582    0.99%
Elapsed time = 56.00 sec. (66177.26 ticks, tree = 50.61 MB, solutions = 20)
 101282 77922   2.25673e+08    31   2.27925e+08   2.25673e+08  1557056    0.99%
 101283 77923   2.25673e+08    29   2.27925e+08   2.25673e+08  1557060    0.99%
 101284 77924   2.25673e+08    24   2.27925e+08   2.25673e+08  1557067    0.99%
 101285 77925   2.25673e+08    28   2.27925e+08   2.25673e+08  1557073    0.99%
 101286 77926   2.25673e+08    28   2.27925e+08   2.25673e+08  1557074    0.99%
 101287 77927   2.25673e+08    28   2.27925e+08   2.25673e+08  1557075    0.99%
 101288 77928   2.25673e+08    25   2.27925e+08   2.25673e+08  1557076    0.99%
 101289 77929   2.25673e+08    22   2.27925e+08   2.25673e+08  1557087    0.99%
 101290 77930   2.25673e+08    28   2.27925e+08   2.25673e+08  1557113    0.99%
 101291 77931   2.25673e+08    28   2.27925e+08   2.25673e+08  1557115    0.99%
Elapsed time = 59.59 sec. (69997.55 ticks, tree = 52.51 MB, solutions = 20)
 107329 82839   2.25673e+08    36   2.27925e+08   2.25673e+08  1646638    0.99%
 107330 82840   2.25673e+08    25   2.27925e+08   2.25673e+08  1646678    0.99%
 107331 82841   2.25673e+08    30   2.27925e+08   2.25673e+08  1646716    0.99%
 107332 82842   2.25673e+08    27   2.27925e+08   2.25673e+08  1646720    0.99%
 107333 82843   2.25673e+08    25   2.27925e+08   2.25673e+08  1646724    0.99%
 107334 82844   2.25673e+08    25   2.27925e+08   2.25673e+08  1646727    0.99%
 107335 82845   2.25673e+08    22   2.27925e+08   2.25673e+08  1646729    0.99%
 107336 82846   2.25673e+08    20   2.27925e+08   2.25673e+08  1646734    0.99%
 107337 82847   2.25673e+08    21   2.27925e+08   2.25673e+08  1646742    0.99%
 107338 82848   2.25673e+08    41   2.27925e+08   2.25673e+08  1646835    0.99%
Elapsed time = 63.07 sec. (73818.52 ticks, tree = 55.82 MB, solutions = 20)
 112674 87231   2.27103e+08    22   2.27925e+08   2.25673e+08  1733086    0.99%
 112675 87232   2.27103e+08    18   2.27925e+08   2.25673e+08  1733090    0.99%
 112676 87233   2.27103e+08    22   2.27925e+08   2.25673e+08  1733100    0.99%
 112677 87234   2.27103e+08    22   2.27925e+08   2.25673e+08  1733101    0.99%
 112678 87235   2.27103e+08    23   2.27925e+08   2.25673e+08  1733116    0.99%
 112679 87236   2.27103e+08    21   2.27925e+08   2.25673e+08  1733117    0.99%
 112680 87237   2.27103e+08    21   2.27925e+08   2.25673e+08  1733133    0.99%
 112681 87237   2.27289e+08    27   2.27925e+08   2.25673e+08  1733248    0.99%
 112682 87237   2.27394e+08    30   2.27925e+08   2.25673e+08  1733251    0.99%
 112683 87238   2.27394e+08    30   2.27925e+08   2.25673e+08  1733252    0.99%
Elapsed time = 66.57 sec. (77640.41 ticks, tree = 58.65 MB, solutions = 20)
 117350 90842   2.25673e+08    37   2.27925e+08   2.25673e+08  1819859    0.99%
 117351 90843   2.25673e+08    36   2.27925e+08   2.25673e+08  1819863    0.99%
 117352 90844   2.25673e+08    35   2.27925e+08   2.25673e+08  1819867    0.99%
 117353 90845   2.25673e+08    36   2.27925e+08   2.25673e+08  1819870    0.99%
 117354 90846   2.25673e+08    34   2.27925e+08   2.25673e+08  1819871    0.99%
 117355 90847   2.27010e+08    19   2.27925e+08   2.25673e+08  1819939    0.99%
 117356 90848   2.27010e+08    20   2.27925e+08   2.25673e+08  1819940    0.99%
 117357 90849   2.27010e+08    23   2.27925e+08   2.25673e+08  1819956    0.99%
 117358 90850   2.27010e+08    22   2.27925e+08   2.25673e+08  1819957    0.99%
 117359 90851   2.27010e+08    22   2.27925e+08   2.25673e+08  1819969    0.99%
Elapsed time = 70.09 sec. (81460.71 ticks, tree = 61.00 MB, solutions = 20)
 121860 94445        cutoff         2.27925e+08   2.25673e+08  1908193    0.99%
 121861 94446   2.25673e+08    24   2.27925e+08   2.25673e+08  1908204    0.99%
 121862 94447   2.25700e+08    33   2.27925e+08   2.25673e+08  1908381    0.99%
 121863 94448   2.25725e+08    33   2.27925e+08   2.25673e+08  1908382    0.99%
 121864 94449   2.25725e+08    32   2.27925e+08   2.25673e+08  1908383    0.99%
 121865 94449   2.25739e+08    32   2.27925e+08   2.25673e+08  1908384    0.99%
 121866 94450   2.26026e+08    34   2.27925e+08   2.25673e+08  1908393    0.99%
 121867 94450   2.26026e+08    34   2.27925e+08   2.25673e+08  1908394    0.99%
 121868 94449        cutoff         2.27925e+08   2.25673e+08  1908405    0.99%
 121869 94450   2.25673e+08    20   2.27925e+08   2.25673e+08  1908456    0.99%
Elapsed time = 73.64 sec. (85287.18 ticks, tree = 63.25 MB, solutions = 20)
 126329 98077   2.25673e+08    22   2.27925e+08   2.25673e+08  1993562    0.99%
 126330 98078   2.25673e+08    22   2.27925e+08   2.25673e+08  1993574    0.99%
 126331 98079   2.25673e+08    24   2.27925e+08   2.25673e+08  1993589    0.99%
 126332 98080   2.25673e+08    22   2.27925e+08   2.25673e+08  1993606    0.99%
 126333 98081   2.25673e+08    24   2.27925e+08   2.25673e+08  1993619    0.99%
 126334 98082   2.25673e+08    21   2.27925e+08   2.25673e+08  1993627    0.99%
 126335 98083   2.25673e+08    21   2.27925e+08   2.25673e+08  1993631    0.99%
 126336 98084   2.25673e+08    20   2.27925e+08   2.25673e+08  1993708    0.99%
 126337 98085   2.25673e+08    22   2.27925e+08   2.25673e+08  1993713    0.99%
 126338 98086   2.25673e+08    24   2.27925e+08   2.25673e+08  1993715    0.99%
Elapsed time = 77.17 sec. (89107.78 ticks, tree = 65.53 MB, solutions = 20)
 131150 101591   2.25673e+08    21   2.27925e+08   2.25673e+08  2076651    0.99%
 131151 101592   2.25673e+08    18   2.27925e+08   2.25673e+08  2076653    0.99%
 131152 101591    infeasible         2.27925e+08   2.25673e+08  2076718    0.99%
 131153 101592   2.25673e+08    26   2.27925e+08   2.25673e+08  2076779    0.99%
 131154 101593   2.25673e+08    25   2.27925e+08   2.25673e+08  2076783    0.99%
 131155 101594   2.25673e+08    19   2.27925e+08   2.25673e+08  2076819    0.99%
 131156 101595   2.25673e+08    21   2.27925e+08   2.25673e+08  2076851    0.99%
 131157 101596   2.25673e+08    19   2.27925e+08   2.25673e+08  2076852    0.99%
 131158 101597   2.25673e+08    21   2.27925e+08   2.25673e+08  2076858    0.99%
 131159 101598   2.25673e+08    22   2.27925e+08   2.25673e+08  2076859    0.99%
Elapsed time = 80.70 sec. (92929.15 ticks, tree = 67.84 MB, solutions = 20)
 136385 105294   2.25673e+08    26   2.27925e+08   2.25673e+08  2160368    0.99%
 136386 105295   2.25673e+08    29   2.27925e+08   2.25673e+08  2160375    0.99%
 136387 105296   2.25673e+08    29   2.27925e+08   2.25673e+08  2160376    0.99%
 136388 105297   2.25673e+08    28   2.27925e+08   2.25673e+08  2160378    0.99%
 136389 105298   2.25673e+08    28   2.27925e+08   2.25673e+08  2160379    0.99%
 136390 105299   2.25673e+08    25   2.27925e+08   2.25673e+08  2160383    0.99%
 136391 105300   2.25673e+08    25   2.27925e+08   2.25673e+08  2160395    0.99%
 136392 105301   2.25673e+08    24   2.27925e+08   2.25673e+08  2160404    0.99%
 136393 105302   2.25673e+08    24   2.27925e+08   2.25673e+08  2160410    0.99%
 136394 105303   2.25673e+08    22   2.27925e+08   2.25673e+08  2160420    0.99%
Elapsed time = 84.19 sec. (96747.58 ticks, tree = 70.31 MB, solutions = 20)
 142597 109986   2.26175e+08    36   2.27925e+08   2.25673e+08  2255040    0.99%
 142598 109987   2.26586e+08    33   2.27925e+08   2.25673e+08  2255050    0.99%
 142599 109986        cutoff         2.27925e+08   2.25673e+08  2255053    0.99%
 142600 109985        cutoff         2.27925e+08   2.25673e+08  2255056    0.99%
 142601 109986   2.26289e+08    29   2.27925e+08   2.25673e+08  2255244    0.99%
 142602 109985        cutoff         2.27925e+08   2.25673e+08  2255265    0.99%
 142603 109984        cutoff         2.27925e+08   2.25673e+08  2255286    0.99%
 142604 109985   2.26811e+08    33   2.27925e+08   2.25673e+08  2255408    0.99%
 142605 109986   2.26811e+08    31   2.27925e+08   2.25673e+08  2255417    0.99%
 142606 109986   2.26811e+08    34   2.27925e+08   2.25673e+08  2255442    0.99%
Elapsed time = 87.69 sec. (100582.11 ticks, tree = 73.50 MB, solutions = 20)
 147575 113685   2.27587e+08    18   2.27925e+08   2.25673e+08  2333620    0.99%
 147576 113686   2.27587e+08    15   2.27925e+08   2.25673e+08  2333621    0.99%
 147577 113687   2.27587e+08    19   2.27925e+08   2.25673e+08  2333641    0.99%
 147578 113688   2.27587e+08    18   2.27925e+08   2.25673e+08  2333642    0.99%
 147579 113689   2.27587e+08    17   2.27925e+08   2.25673e+08  2333651    0.99%
 147580 113690   2.27587e+08    17   2.27925e+08   2.25673e+08  2333652    0.99%
 147581 113691   2.27587e+08    18   2.27925e+08   2.25673e+08  2333660    0.99%
 147582 113692   2.27587e+08    17   2.27925e+08   2.25673e+08  2333661    0.99%
 147583 113693   2.27587e+08    20   2.27925e+08   2.25673e+08  2333670    0.99%
 147584 113693   2.27587e+08    17   2.27925e+08   2.25673e+08  2333732    0.99%
Elapsed time = 91.15 sec. (104405.43 ticks, tree = 76.04 MB, solutions = 20)
 150363 115837   2.27122e+08    14   2.27925e+08   2.25673e+08  2379204    0.99%
 150364 115838   2.27122e+08    14   2.27925e+08   2.25673e+08  2379205    0.99%
 150365 115839   2.27122e+08    15   2.27925e+08   2.25673e+08  2379214    0.99%
 150366 115840   2.27122e+08    16   2.27925e+08   2.25673e+08  2379215    0.99%
 150367 115839        cutoff         2.27925e+08   2.25673e+08  2379216    0.99%
 150368 115840   2.27122e+08    10   2.27925e+08   2.25673e+08  2379227    0.99%
 150369 115841   2.27122e+08    10   2.27925e+08   2.25673e+08  2379230    0.99%
 150370 115842   2.27122e+08    11   2.27925e+08   2.25673e+08  2379232    0.99%
 150371 115843   2.27122e+08    11   2.27925e+08   2.25673e+08  2379235    0.99%
 150372 115844   2.27122e+08    11   2.27925e+08   2.25673e+08  2379236    0.99%
Elapsed time = 94.42 sec. (108223.93 ticks, tree = 77.48 MB, solutions = 20)
*153699+118350                       2.27909e+08   2.25673e+08             0.98%
 155638 119637   2.25819e+08    17   2.27909e+08   2.25673e+08  2466640    0.98%
 155639 119638   2.25819e+08    16   2.27909e+08   2.25673e+08  2466676    0.98%
 155640 119639   2.25819e+08    16   2.27909e+08   2.25673e+08  2466688    0.98%
 155641 119640   2.26308e+08    25   2.27909e+08   2.25673e+08  2466701    0.98%
 155642 119641   2.26308e+08    22   2.27909e+08   2.25673e+08  2466709    0.98%
 155643 119641   2.26308e+08    22   2.27909e+08   2.25673e+08  2466711    0.98%
 155644 119642   2.26308e+08    23   2.27909e+08   2.25673e+08  2466712    0.98%
 155645 119643   2.26308e+08    23   2.27909e+08   2.25673e+08  2466714    0.98%
 155646 119644   2.26707e+08    19   2.27909e+08   2.25673e+08  2466721    0.98%
 155647 119644   2.27071e+08    17   2.27909e+08   2.25673e+08  2466722    0.98%
Elapsed time = 97.97 sec. (112041.68 ticks, tree = 80.03 MB, solutions = 21)

GUB cover cuts applied:  1
Cover cuts applied:  469
Mixed integer rounding cuts applied:  6
Gomory fractional cuts applied:  4

Root node processing (before b&c):
  Real time             =    0.05 sec. (55.21 ticks)
Sequential b&c:
  Real time             =   99.95 sec. (114228.67 ticks)
                          ------------
Total (root+branch&cut) =  100.00 sec. (114283.88 ticks)

Solution pool: 21 solutions saved.

MIP - Time limit exceeded, integer feasible:  Objective =  2.2790890900e+08
Current MIP best bound =  2.2567326400e+08 (gap = 2.23564e+06, 0.98%)
Solution time =  100.00 sec.  Iterations = 2521024  Nodes = 159085 (122054)
Deterministic time = 114283.88 ticks  (1142.84 ticks/sec)


Incumbent solution written to file '/tmp/tmpvT2XGe.cplex.sol'.
